WARNING: for repeatability, setting FPU to use double precision
============================[ Problem Statistics ]=============================
|                                                                             |
|  Number of variables:           100                                         |
|  Number of clauses:             449                                         |
|  Parse time:                   0.00 s                                       |
|  Eliminated clauses:           0.00 Mb                                      |
|  Simplification time:          0.00 s                                       |
|                                                                             |
============================[ Search Statistics ]==============================
| Conflicts |          ORIGINAL         |          LEARNT          | Progress |
|           |    Vars  Clauses Literals |    Limit  Clauses Lit/Cl |          |
===============================================================================
|       100 |      99      447     1349 |      163      100      7 |  0.020 % |
|       250 |      99      447     1349 |      180      165      7 |  0.010 % |
===============================================================================
restarts              : 4
conflicts             : 425            (97477 /sec)
decisions             : 515            (0.00 % random) (118119 /sec)
propagations          : 10507          (2409862 /sec)
conflict literals     : 2679           (24.39 % deleted)
Memory used           : 13.00 MB
CPU time              : 0.00436 s

SATISFIABLE
